
Gurobi 13.0.2 (win64) logging started Fri Jul 24 10:19:17 2026

Set parameter LogFile to value "E:\codes\ExactEBRP\results\gf_c0_mechanism_transfer_c5_round30\runs\stage3__V12_M1__c3_replica__300s\external\native_logs\R.1.0.0.0.0.1.0.1.0.0_terminal_mip.gurobi.log"
Gurobi Optimizer version 13.0.2 build v13.0.2rc1 (win64 - Windows 10.0 (19045.2))

CPU model: 12th Gen Intel(R) Core(TM) i7-12700KF, instruction set [SSE2|AVX|AVX2]
Thread count: 12 physical cores, 20 logical processors, using up to 1 threads

Non-default parameters:
TimeLimit  268.8315641
MIPGap  0
MIPGapAbs  0
LogToConsole  0
Threads  1

Optimize a model with 6225 rows, 648 columns and 59365 nonzeros (Min)
Model fingerprint: 0xbdef9dbe
Model has 13 linear objective coefficients
Variable types: 347 continuous, 301 integer (253 binary)
Coefficient statistics:
  Matrix range     [2e-03, 1e+05]
  Objective range  [2e-03, 1e+00]
  Bounds range     [1e-01, 8e+01]
  RHS range        [3e-02, 1e+06]

Presolve removed 736 rows and 27 columns
Presolve time: 0.13s
Presolved: 5489 rows, 621 columns, 58783 nonzeros
Variable types: 321 continuous, 300 integer (252 binary)

Root relaxation: objective 3.264106e-01, 757 iterations, 0.04 seconds (0.13 work units)

    Nodes    |    Current Node    |     Objective Bounds      |     Work
 Expl Unexpl |  Obj  Depth IntInf | Incumbent    BestBd   Gap | It/Node Time

     0     0    0.32641    0   58          -    0.32641      -     -    0s
     0     0 infeasible    0               - infeasible      -     -    0s

Cutting planes:
  Learned: 1
  Gomory: 17
  Cover: 25
  Implied bound: 46
  Clique: 20
  MIR: 90
  StrongCG: 3
  Flow cover: 24
  GUB cover: 10
  Zero half: 8
  Network: 1
  RLT: 10
  Relax-and-lift: 7
  BQP: 1
  PSD: 1

Explored 1 nodes (2046 simplex iterations) in 0.46 seconds (0.79 work units)
Thread count was 1 (of 20 available processors)

Solution count 0

Model is infeasible
Best objective -, best bound -, gap -

User-callback calls 660, time in user-callback 0.00 sec
